! SYNTHETIC lossless series inductor, L = 1e-10 H (known by construction)
! S11=S22=Z/(Z+2z0), S21=S12=2z0/(Z+2z0), Z=j*w*L, z0=50. NOT an EM result.
# Hz S RI R 50
0 0 0 1 0 1 0 0 0
50000000 9.869603427e-08 0.0003141592344 0.9999999013 -0.0003141592344 0.9999999013 -0.0003141592344 9.869603427e-08 0.0003141592344
100000000 3.947840202e-07 0.0006283182827 0.9999996052 -0.0006283182827 0.9999996052 -0.0006283182827 3.947840202e-07 0.0006283182827
150000000 8.882636071e-07 0.0009424769589 0.9999991117 -0.0009424769589 0.9999991117 -0.0009424769589 8.882636071e-07 0.0009424769589
200000000 1.579134211e-06 0.001256635077 0.9999984209 -0.001256635077 0.9999984209 -0.001256635077 1.579134211e-06 0.001256635077
250000000 2.467395012e-06 0.001570792451 0.9999975326 -0.001570792451 0.9999975326 -0.001570792451 2.467395012e-06 0.001570792451
300000000 3.55304496e-06 0.001884948895 0.999996447 -0.001884948895 0.999996447 -0.001884948895 3.55304496e-06 0.001884948895
350000000 4.836082769e-06 0.002199104222 0.9999951639 -0.002199104222 0.9999951639 -0.002199104222 4.836082769e-06 0.002199104222
400000000 6.316506918e-06 0.002513258248 0.9999936835 -0.002513258248 0.9999936835 -0.002513258248 6.316506918e-06 0.002513258248
450000000 7.994315655e-06 0.002827410785 0.9999920057 -0.002827410785 0.9999920057 -0.002827410785 7.994315655e-06 0.002827410785
500000000 9.869506993e-06 0.003141561648 0.9999901305 -0.003141561648 0.9999901305 -0.003141561648 9.869506993e-06 0.003141561648
550000000 1.194207871e-05 0.00345571065 0.9999880579 -0.00345571065 0.9999880579 -0.00345571065 1.194207871e-05 0.00345571065
600000000 1.421202835e-05 0.003769857606 0.999985788 -0.003769857606 0.999985788 -0.003769857606 1.421202835e-05 0.003769857606
650000000 1.667935323e-05 0.00408400233 0.9999833206 -0.00408400233 0.9999833206 -0.00408400233 1.667935323e-05 0.00408400233
700000000 1.934405043e-05 0.004398144635 0.9999806559 -0.004398144635 0.9999806559 -0.004398144635 1.934405043e-05 0.004398144635
750000000 2.220611678e-05 0.004712284337 0.9999777939 -0.004712284337 0.9999777939 -0.004712284337 2.220611678e-05 0.004712284337
800000000 2.52655489e-05 0.005026421247 0.9999747345 -0.005026421247 0.9999747345 -0.005026421247 2.52655489e-05 0.005026421247
850000000 2.852234317e-05 0.005340555182 0.9999714777 -0.005340555182 0.9999714777 -0.005340555182 2.852234317e-05 0.005340555182
900000000 3.197649573e-05 0.005654685954 0.9999680235 -0.005654685954 0.9999680235 -0.005654685954 3.197649573e-05 0.005654685954
950000000 3.562800249e-05 0.005968813377 0.999964372 -0.005968813377 0.999964372 -0.005968813377 3.562800249e-05 0.005968813377
1000000000 3.947685912e-05 0.006282937267 0.9999605231 -0.006282937267 0.9999605231 -0.006282937267 3.947685912e-05 0.006282937267
1050000000 4.352306107e-05 0.006597057436 0.9999564769 -0.006597057436 0.9999564769 -0.006597057436 4.352306107e-05 0.006597057436
1100000000 4.776660354e-05 0.006911173699 0.9999522334 -0.006911173699 0.9999522334 -0.006911173699 4.776660354e-05 0.006911173699
1150000000 5.220748152e-05 0.00722528587 0.9999477925 -0.00722528587 0.9999477925 -0.00722528587 5.220748152e-05 0.00722528587
1200000000 5.684568973e-05 0.007539393762 0.9999431543 -0.007539393762 0.9999431543 -0.007539393762 5.684568973e-05 0.007539393762
1250000000 6.16812227e-05 0.007853497191 0.9999383188 -0.007853497191 0.9999383188 -0.007853497191 6.16812227e-05 0.007853497191
1300000000 6.671407469e-05 0.008167595969 0.9999332859 -0.008167595969 0.9999332859 -0.008167595969 6.671407469e-05 0.008167595969
1350000000 7.194423974e-05 0.008481689912 0.9999280558 -0.008481689912 0.9999280558 -0.008481689912 7.194423974e-05 0.008481689912
1400000000 7.737171166e-05 0.008795778833 0.9999226283 -0.008795778833 0.9999226283 -0.008795778833 7.737171166e-05 0.008795778833
1450000000 8.299648403e-05 0.009109862546 0.9999170035 -0.009109862546 0.9999170035 -0.009109862546 8.299648403e-05 0.009109862546
1500000000 8.881855017e-05 0.009423940866 0.9999111814 -0.009423940866 0.9999111814 -0.009423940866 8.881855017e-05 0.009423940866
1550000000 9.483790321e-05 0.009738013606 0.9999051621 -0.009738013606 0.9999051621 -0.009738013606 9.483790321e-05 0.009738013606
1600000000 0.000101054536 0.01005208058 0.9998989455 -0.01005208058 0.9998989455 -0.01005208058 0.000101054536 0.01005208058
1650000000 0.0001074684412 0.0103661416 0.9998925316 -0.0103661416 0.9998925316 -0.0103661416 0.0001074684412 0.0103661416
1700000000 0.0001140796112 0.01068019649 0.9998859204 -0.01068019649 0.9998859204 -0.01068019649 0.0001140796112 0.01068019649
1750000000 0.0001208880382 0.01099424505 0.999879112 -0.01099424505 0.999879112 -0.01099424505 0.0001208880382 0.01099424505
1800000000 0.0001278937141 0.01130828711 0.9998721063 -0.01130828711 0.9998721063 -0.01130828711 0.0001278937141 0.01130828711
1850000000 0.0001350966307 0.01162232247 0.9998649034 -0.01162232247 0.9998649034 -0.01162232247 0.0001350966307 0.01162232247
1900000000 0.0001424967793 0.01193635095 0.9998575032 -0.01193635095 0.9998575032 -0.01193635095 0.0001424967793 0.01193635095
1950000000 0.0001500941513 0.01225037236 0.9998499058 -0.01225037236 0.9998499058 -0.01225037236 0.0001500941513 0.01225037236
2000000000 0.0001578887376 0.01256438653 0.9998421113 -0.01256438653 0.9998421113 -0.01256438653 0.0001578887376 0.01256438653
2050000000 0.0001658805291 0.01287839325 0.9998341195 -0.01287839325 0.9998341195 -0.01287839325 0.0001658805291 0.01287839325
2100000000 0.0001740695162 0.01319239235 0.9998259305 -0.01319239235 0.9998259305 -0.01319239235 0.0001740695162 0.01319239235
2150000000 0.0001824556892 0.01350638364 0.9998175443 -0.01350638364 0.9998175443 -0.01350638364 0.0001824556892 0.01350638364
2200000000 0.0001910390383 0.01382036694 0.999808961 -0.01382036694 0.999808961 -0.01382036694 0.0001910390383 0.01382036694
2250000000 0.0001998195533 0.01413434206 0.9998001804 -0.01413434206 0.9998001804 -0.01413434206 0.0001998195533 0.01413434206
2300000000 0.0002087972237 0.01444830881 0.9997912028 -0.01444830881 0.9997912028 -0.01444830881 0.0002087972237 0.01444830881
2350000000 0.0002179720391 0.01476226701 0.999782028 -0.01476226701 0.999782028 -0.01476226701 0.0002179720391 0.01476226701
2400000000 0.0002273439884 0.01507621647 0.999772656 -0.01507621647 0.999772656 -0.01507621647 0.0002273439884 0.01507621647
2450000000 0.0002369130606 0.01539015701 0.9997630869 -0.01539015701 0.9997630869 -0.01539015701 0.0002369130606 0.01539015701
2500000000 0.0002466792444 0.01570408844 0.9997533208 -0.01570408844 0.9997533208 -0.01570408844 0.0002466792444 0.01570408844
2550000000 0.0002566425282 0.01601801058 0.9997433575 -0.01601801058 0.9997433575 -0.01601801058 0.0002566425282 0.01601801058
2600000000 0.0002668029002 0.01633192323 0.9997331971 -0.01633192323 0.9997331971 -0.01633192323 0.0002668029002 0.01633192323
2650000000 0.0002771603485 0.01664582622 0.9997228397 -0.01664582622 0.9997228397 -0.01664582622 0.0002771603485 0.01664582622
2700000000 0.0002877148607 0.01695971936 0.9997122851 -0.01695971936 0.9997122851 -0.01695971936 0.0002877148607 0.01695971936
2750000000 0.0002984664243 0.01727360247 0.9997015336 -0.01727360247 0.9997015336 -0.01727360247 0.0002984664243 0.01727360247
2800000000 0.0003094150267 0.01758747535 0.999690585 -0.01758747535 0.999690585 -0.01758747535 0.0003094150267 0.01758747535
2850000000 0.0003205606549 0.01790133782 0.9996794393 -0.01790133782 0.9996794393 -0.01790133782 0.0003205606549 0.01790133782
2900000000 0.0003319032957 0.0182151897 0.9996680967 -0.0182151897 0.9996680967 -0.0182151897 0.0003319032957 0.0182151897
2950000000 0.0003434429356 0.01852903081 0.9996565571 -0.01852903081 0.9996565571 -0.01852903081 0.0003434429356 0.01852903081
3000000000 0.0003551795611 0.01884286094 0.9996448204 -0.01884286094 0.9996448204 -0.01884286094 0.0003551795611 0.01884286094
3050000000 0.0003671131582 0.01915667993 0.9996328868 -0.01915667993 0.9996328868 -0.01915667993 0.0003671131582 0.01915667993
3100000000 0.0003792437128 0.01947048759 0.9996207563 -0.01947048759 0.9996207563 -0.01947048759 0.0003792437128 0.01947048759
3150000000 0.0003915712106 0.01978428373 0.9996084288 -0.01978428373 0.9996084288 -0.01978428373 0.0003915712106 0.01978428373
3200000000 0.000404095637 0.02009806816 0.9995959044 -0.02009806816 0.9995959044 -0.02009806816 0.000404095637 0.02009806816
3250000000 0.0004168169771 0.0204118407 0.999583183 -0.0204118407 0.999583183 -0.0204118407 0.0004168169771 0.0204118407
3300000000 0.000429735216 0.02072560116 0.9995702648 -0.02072560116 0.9995702648 -0.02072560116 0.000429735216 0.02072560116
3350000000 0.0004428503383 0.02103934937 0.9995571497 -0.02103934937 0.9995571497 -0.02103934937 0.0004428503383 0.02103934937
3400000000 0.0004561623285 0.02135308513 0.9995438377 -0.02135308513 0.9995438377 -0.02135308513 0.0004561623285 0.02135308513
3450000000 0.0004696711709 0.02166680825 0.9995303288 -0.02166680825 0.9995303288 -0.02166680825 0.0004696711709 0.02166680825
3500000000 0.0004833768495 0.02198051856 0.9995166232 -0.02198051856 0.9995166232 -0.02198051856 0.0004833768495 0.02198051856
3550000000 0.0004972793481 0.02229421587 0.9995027207 -0.02229421587 0.9995027207 -0.02229421587 0.0004972793481 0.02229421587
3600000000 0.0005113786502 0.02260789999 0.9994886213 -0.02260789999 0.9994886213 -0.02260789999 0.0005113786502 0.02260789999
3650000000 0.0005256747393 0.02292157074 0.9994743253 -0.02292157074 0.9994743253 -0.02292157074 0.0005256747393 0.02292157074
3700000000 0.0005401675983 0.02323522794 0.9994598324 -0.02323522794 0.9994598324 -0.02323522794 0.0005401675983 0.02323522794
3750000000 0.0005548572101 0.02354887139 0.9994451428 -0.02354887139 0.9994451428 -0.02354887139 0.0005548572101 0.02354887139
3800000000 0.0005697435574 0.02386250091 0.9994302564 -0.02386250091 0.9994302564 -0.02386250091 0.0005697435574 0.02386250091
3850000000 0.0005848266226 0.02417611632 0.9994151734 -0.02417611632 0.9994151734 -0.02417611632 0.0005848266226 0.02417611632
3900000000 0.0006001063878 0.02448971744 0.9993998936 -0.02448971744 0.9993998936 -0.02448971744 0.0006001063878 0.02448971744
3950000000 0.000615582835 0.02480330407 0.9993844172 -0.02480330407 0.9993844172 -0.02480330407 0.000615582835 0.02480330407
4000000000 0.0006312559459 0.02511687604 0.9993687441 -0.02511687604 0.9993687441 -0.02511687604 0.0006312559459 0.02511687604
4050000000 0.0006471257019 0.02543043315 0.9993528743 -0.02543043315 0.9993528743 -0.02543043315 0.0006471257019 0.02543043315
4100000000 0.0006631920843 0.02574397523 0.9993368079 -0.02574397523 0.9993368079 -0.02574397523 0.0006631920843 0.02574397523
4150000000 0.0006794550741 0.02605750208 0.9993205449 -0.02605750208 0.9993205449 -0.02605750208 0.0006794550741 0.02605750208
4200000000 0.0006959146521 0.02637101354 0.9993040853 -0.02637101354 0.9993040853 -0.02637101354 0.0006959146521 0.02637101354
4250000000 0.0007125707988 0.02668450939 0.9992874292 -0.02668450939 0.9992874292 -0.02668450939 0.0007125707988 0.02668450939
4300000000 0.0007294234945 0.02699798948 0.9992705765 -0.02699798948 0.9992705765 -0.02699798948 0.0007294234945 0.02699798948
4350000000 0.0007464727193 0.0273114536 0.9992535273 -0.0273114536 0.9992535273 -0.0273114536 0.0007464727193 0.0273114536
4400000000 0.0007637184532 0.02762490158 0.9992362815 -0.02762490158 0.9992362815 -0.02762490158 0.0007637184532 0.02762490158
4450000000 0.0007811606756 0.02793833323 0.9992188393 -0.02793833323 0.9992188393 -0.02793833323 0.0007811606756 0.02793833323
4500000000 0.000798799366 0.02825174836 0.9992012006 -0.02825174836 0.9992012006 -0.02825174836 0.000798799366 0.02825174836
4550000000 0.0008166345035 0.0285651468 0.9991833655 -0.0285651468 0.9991833655 -0.0285651468 0.0008166345035 0.0285651468
4600000000 0.0008346660671 0.02887852835 0.9991653339 -0.02887852835 0.9991653339 -0.02887852835 0.0008346660671 0.02887852835
4650000000 0.0008528940355 0.02919189283 0.999147106 -0.02919189283 0.999147106 -0.02919189283 0.0008528940355 0.02919189283
4700000000 0.0008713183871 0.02950524007 0.9991286816 -0.02950524007 0.9991286816 -0.02950524007 0.0008713183871 0.02950524007
4750000000 0.0008899391001 0.02981856986 0.9991100609 -0.02981856986 0.9991100609 -0.02981856986 0.0008899391001 0.02981856986
4800000000 0.0009087561527 0.03013188203 0.9990912438 -0.03013188203 0.9990912438 -0.03013188203 0.0009087561527 0.03013188203
4850000000 0.0009277695225 0.0304451764 0.9990722305 -0.0304451764 0.9990722305 -0.0304451764 0.0009277695225 0.0304451764
4900000000 0.0009469791871 0.03075845278 0.9990530208 -0.03075845278 0.9990530208 -0.03075845278 0.0009469791871 0.03075845278
4950000000 0.0009663851238 0.03107171099 0.9990336149 -0.03107171099 0.9990336149 -0.03107171099 0.0009663851238 0.03107171099
5000000000 0.0009859873096 0.03138495083 0.9990140127 -0.03138495083 0.9990140127 -0.03138495083 0.0009859873096 0.03138495083
5050000000 0.001005785722 0.03169817213 0.9989942143 -0.03169817213 0.9989942143 -0.03169817213 0.001005785722 0.03169817213
5100000000 0.001025780336 0.03201137471 0.9989742197 -0.03201137471 0.9989742197 -0.03201137471 0.001025780336 0.03201137471
5150000000 0.00104597113 0.03232455838 0.9989540289 -0.03232455838 0.9989540289 -0.03232455838 0.00104597113 0.03232455838
5200000000 0.001066358079 0.03263772295 0.9989336419 -0.03263772295 0.9989336419 -0.03263772295 0.001066358079 0.03263772295
5250000000 0.001086941159 0.03295086824 0.9989130588 -0.03295086824 0.9989130588 -0.03295086824 0.001086941159 0.03295086824
5300000000 0.001107720345 0.03326399406 0.9988922797 -0.03326399406 0.9988922797 -0.03326399406 0.001107720345 0.03326399406
5350000000 0.001128695615 0.03357710024 0.9988713044 -0.03357710024 0.9988713044 -0.03357710024 0.001128695615 0.03357710024
5400000000 0.001149866941 0.03389018659 0.9988501331 -0.03389018659 0.9988501331 -0.03389018659 0.001149866941 0.03389018659
5450000000 0.001171234301 0.03420325293 0.9988287657 -0.03420325293 0.9988287657 -0.03420325293 0.001171234301 0.03420325293
5500000000 0.001192797667 0.03451629906 0.9988072023 -0.03451629906 0.9988072023 -0.03451629906 0.001192797667 0.03451629906
5550000000 0.001214557016 0.03482932481 0.998785443 -0.03482932481 0.998785443 -0.03482932481 0.001214557016 0.03482932481
5600000000 0.00123651232 0.03514233 0.9987634877 -0.03514233 0.9987634877 -0.03514233 0.00123651232 0.03514233
5650000000 0.001258663555 0.03545531443 0.9987413364 -0.03545531443 0.9987413364 -0.03545531443 0.001258663555 0.03545531443
5700000000 0.001281010695 0.03576827793 0.9987189893 -0.03576827793 0.9987189893 -0.03576827793 0.001281010695 0.03576827793
5750000000 0.001303553712 0.03608122032 0.9986964463 -0.03608122032 0.9986964463 -0.03608122032 0.001303553712 0.03608122032
5800000000 0.00132629258 0.0363941414 0.9986737074 -0.0363941414 0.9986737074 -0.0363941414 0.00132629258 0.0363941414
5850000000 0.001349227273 0.03670704099 0.9986507727 -0.03670704099 0.9986507727 -0.03670704099 0.001349227273 0.03670704099
5900000000 0.001372357763 0.03701991892 0.9986276422 -0.03701991892 0.9986276422 -0.03701991892 0.001372357763 0.03701991892
5950000000 0.001395684023 0.037332775 0.998604316 -0.037332775 0.998604316 -0.037332775 0.001395684023 0.037332775
6000000000 0.001419206025 0.03764560904 0.998580794 -0.03764560904 0.998580794 -0.03764560904 0.001419206025 0.03764560904
6050000000 0.001442923743 0.03795842086 0.9985570763 -0.03795842086 0.9985570763 -0.03795842086 0.001442923743 0.03795842086
6100000000 0.001466837147 0.03827121028 0.9985331629 -0.03827121028 0.9985331629 -0.03827121028 0.001466837147 0.03827121028
6150000000 0.00149094621 0.03858397711 0.9985090538 -0.03858397711 0.9985090538 -0.03858397711 0.00149094621 0.03858397711
6200000000 0.001515250903 0.03889672117 0.9984847491 -0.03889672117 0.9984847491 -0.03889672117 0.001515250903 0.03889672117
6250000000 0.001539751198 0.03920944228 0.9984602488 -0.03920944228 0.9984602488 -0.03920944228 0.001539751198 0.03920944228
6300000000 0.001564447065 0.03952214026 0.9984355529 -0.03952214026 0.9984355529 -0.03952214026 0.001564447065 0.03952214026
6350000000 0.001589338476 0.03983481491 0.9984106615 -0.03983481491 0.9984106615 -0.03983481491 0.001589338476 0.03983481491
6400000000 0.001614425401 0.04014746607 0.9983855746 -0.04014746607 0.9983855746 -0.04014746607 0.001614425401 0.04014746607
6450000000 0.001639707811 0.04046009354 0.9983602922 -0.04046009354 0.9983602922 -0.04046009354 0.001639707811 0.04046009354
6500000000 0.001665185675 0.04077269714 0.9983348143 -0.04077269714 0.9983348143 -0.04077269714 0.001665185675 0.04077269714
6550000000 0.001690858965 0.04108527669 0.998309141 -0.04108527669 0.998309141 -0.04108527669 0.001690858965 0.04108527669
6600000000 0.001716727649 0.04139783201 0.9982832724 -0.04139783201 0.9982832724 -0.04139783201 0.001716727649 0.04139783201
6650000000 0.001742791697 0.04171036291 0.9982572083 -0.04171036291 0.9982572083 -0.04171036291 0.001742791697 0.04171036291
6700000000 0.001769051078 0.04202286921 0.9982309489 -0.04202286921 0.9982309489 -0.04202286921 0.001769051078 0.04202286921
6750000000 0.001795505762 0.04233535073 0.9982044942 -0.04233535073 0.9982044942 -0.04233535073 0.001795505762 0.04233535073
6800000000 0.001822155718 0.04264780728 0.9981778443 -0.04264780728 0.9981778443 -0.04264780728 0.001822155718 0.04264780728
6850000000 0.001849000913 0.04296023869 0.9981509991 -0.04296023869 0.9981509991 -0.04296023869 0.001849000913 0.04296023869
6900000000 0.001876041316 0.04327264476 0.9981239587 -0.04327264476 0.9981239587 -0.04327264476 0.001876041316 0.04327264476
6950000000 0.001903276896 0.04358502533 0.9980967231 -0.04358502533 0.9980967231 -0.04358502533 0.001903276896 0.04358502533
7000000000 0.00193070762 0.04389738019 0.9980692924 -0.04389738019 0.9980692924 -0.04389738019 0.00193070762 0.04389738019
7050000000 0.001958333456 0.04420970918 0.9980416665 -0.04420970918 0.9980416665 -0.04420970918 0.001958333456 0.04420970918
7100000000 0.001986154372 0.04452201211 0.9980138456 -0.04452201211 0.9980138456 -0.04452201211 0.001986154372 0.04452201211
7150000000 0.002014170334 0.0448342888 0.9979858297 -0.0448342888 0.9979858297 -0.0448342888 0.002014170334 0.0448342888
7200000000 0.00204238131 0.04514653906 0.9979576187 -0.04514653906 0.9979576187 -0.04514653906 0.00204238131 0.04514653906
7250000000 0.002070787267 0.04545876271 0.9979292127 -0.04545876271 0.9979292127 -0.04545876271 0.002070787267 0.04545876271
7300000000 0.002099388171 0.04577095957 0.9979006118 -0.04577095957 0.9979006118 -0.04577095957 0.002099388171 0.04577095957
7350000000 0.002128183988 0.04608312947 0.997871816 -0.04608312947 0.997871816 -0.04608312947 0.002128183988 0.04608312947
7400000000 0.002157174685 0.0463952722 0.9978428253 -0.0463952722 0.9978428253 -0.0463952722 0.002157174685 0.0463952722
7450000000 0.002186360228 0.04670738761 0.9978136398 -0.04670738761 0.9978136398 -0.04670738761 0.002186360228 0.04670738761
7500000000 0.002215740582 0.04701947549 0.9977842594 -0.04701947549 0.9977842594 -0.04701947549 0.002215740582 0.04701947549
7550000000 0.002245315712 0.04733153567 0.9977546843 -0.04733153567 0.9977546843 -0.04733153567 0.002245315712 0.04733153567
7600000000 0.002275085584 0.04764356797 0.9977249144 -0.04764356797 0.9977249144 -0.04764356797 0.002275085584 0.04764356797
7650000000 0.002305050162 0.04795557221 0.9976949498 -0.04795557221 0.9976949498 -0.04795557221 0.002305050162 0.04795557221
7700000000 0.002335209413 0.0482675482 0.9976647906 -0.0482675482 0.9976647906 -0.0482675482 0.002335209413 0.0482675482
7750000000 0.002365563299 0.04857949577 0.9976344367 -0.04857949577 0.9976344367 -0.04857949577 0.002365563299 0.04857949577
7800000000 0.002396111785 0.04889141472 0.9976038882 -0.04889141472 0.9976038882 -0.04889141472 0.002396111785 0.04889141472
7850000000 0.002426854836 0.04920330489 0.9975731452 -0.04920330489 0.9975731452 -0.04920330489 0.002426854836 0.04920330489
7900000000 0.002457792416 0.04951516608 0.9975422076 -0.04951516608 0.9975422076 -0.04951516608 0.002457792416 0.04951516608
7950000000 0.002488924487 0.04982699812 0.9975110755 -0.04982699812 0.9975110755 -0.04982699812 0.002488924487 0.04982699812
8000000000 0.002520251013 0.05013880082 0.997479749 -0.05013880082 0.997479749 -0.05013880082 0.002520251013 0.05013880082
8050000000 0.002551771958 0.05045057401 0.997448228 -0.05045057401 0.997448228 -0.05045057401 0.002551771958 0.05045057401
8100000000 0.002583487285 0.0507623175 0.9974165127 -0.0507623175 0.9974165127 -0.0507623175 0.002583487285 0.0507623175
8150000000 0.002615396955 0.05107403111 0.997384603 -0.05107403111 0.997384603 -0.05107403111 0.002615396955 0.05107403111
8200000000 0.002647500932 0.05138571466 0.9973524991 -0.05138571466 0.9973524991 -0.05138571466 0.002647500932 0.05138571466
8250000000 0.002679799178 0.05169736797 0.9973202008 -0.05169736797 0.9973202008 -0.05169736797 0.002679799178 0.05169736797
8300000000 0.002712291655 0.05200899085 0.9972877083 -0.05200899085 0.9972877083 -0.05200899085 0.002712291655 0.05200899085
8350000000 0.002744978325 0.05232058313 0.9972550217 -0.05232058313 0.9972550217 -0.05232058313 0.002744978325 0.05232058313
8400000000 0.00277785915 0.05263214463 0.9972221409 -0.05263214463 0.9972221409 -0.05263214463 0.00277785915 0.05263214463
8450000000 0.00281093409 0.05294367516 0.9971890659 -0.05294367516 0.9971890659 -0.05294367516 0.00281093409 0.05294367516
8500000000 0.002844203107 0.05325517454 0.9971557969 -0.05325517454 0.9971557969 -0.05325517454 0.002844203107 0.05325517454
8550000000 0.002877666162 0.0535666426 0.9971223338 -0.0535666426 0.9971223338 -0.0535666426 0.002877666162 0.0535666426
8600000000 0.002911323215 0.05387807915 0.9970886768 -0.05387807915 0.9970886768 -0.05387807915 0.002911323215 0.05387807915
8650000000 0.002945174228 0.054189484 0.9970548258 -0.054189484 0.9970548258 -0.054189484 0.002945174228 0.054189484
8700000000 0.00297921916 0.05450085699 0.9970207808 -0.05450085699 0.9970207808 -0.05450085699 0.00297921916 0.05450085699
8750000000 0.003013457971 0.05481219793 0.996986542 -0.05481219793 0.996986542 -0.05481219793 0.003013457971 0.05481219793
8800000000 0.003047890622 0.05512350664 0.9969521094 -0.05512350664 0.9969521094 -0.05512350664 0.003047890622 0.05512350664
8850000000 0.003082517071 0.05543478294 0.9969174829 -0.05543478294 0.9969174829 -0.05543478294 0.003082517071 0.05543478294
8900000000 0.003117337278 0.05574602664 0.9968826627 -0.05574602664 0.9968826627 -0.05574602664 0.003117337278 0.05574602664
8950000000 0.003152351203 0.05605723758 0.9968476488 -0.05605723758 0.9968476488 -0.05605723758 0.003152351203 0.05605723758
9000000000 0.003187558804 0.05636841556 0.9968124412 -0.05636841556 0.9968124412 -0.05636841556 0.003187558804 0.05636841556
9050000000 0.00322296004 0.05667956041 0.99677704 -0.05667956041 0.99677704 -0.05667956041 0.00322296004 0.05667956041
9100000000 0.003258554869 0.05699067195 0.9967414451 -0.05699067195 0.9967414451 -0.05699067195 0.003258554869 0.05699067195
9150000000 0.00329434325 0.05730174999 0.9967056568 -0.05730174999 0.9967056568 -0.05730174999 0.00329434325 0.05730174999
9200000000 0.00333032514 0.05761279437 0.9966696749 -0.05761279437 0.9966696749 -0.05761279437 0.00333032514 0.05761279437
9250000000 0.003366500498 0.05792380489 0.9966334995 -0.05792380489 0.9966334995 -0.05792380489 0.003366500498 0.05792380489
9300000000 0.003402869281 0.05823478137 0.9965971307 -0.05823478137 0.9965971307 -0.05823478137 0.003402869281 0.05823478137
9350000000 0.003439431447 0.05854572365 0.9965605686 -0.05854572365 0.9965605686 -0.05854572365 0.003439431447 0.05854572365
9400000000 0.003476186951 0.05885663154 0.996523813 -0.05885663154 0.996523813 -0.05885663154 0.003476186951 0.05885663154
9450000000 0.003513135753 0.05916750485 0.9964868642 -0.05916750485 0.9964868642 -0.05916750485 0.003513135753 0.05916750485
9500000000 0.003550277807 0.05947834341 0.9964497222 -0.05947834341 0.9964497222 -0.05947834341 0.003550277807 0.05947834341
9550000000 0.003587613072 0.05978914704 0.9964123869 -0.05978914704 0.9964123869 -0.05978914704 0.003587613072 0.05978914704
9600000000 0.003625141502 0.06009991557 0.9963748585 -0.06009991557 0.9963748585 -0.06009991557 0.003625141502 0.06009991557
9650000000 0.003662863054 0.0604106488 0.9963371369 -0.0604106488 0.9963371369 -0.0604106488 0.003662863054 0.0604106488
9700000000 0.003700777684 0.06072134656 0.9962992223 -0.06072134656 0.9962992223 -0.06072134656 0.003700777684 0.06072134656
9750000000 0.003738885347 0.06103200868 0.9962611147 -0.06103200868 0.9962611147 -0.06103200868 0.003738885347 0.06103200868
9800000000 0.003777185999 0.06134263497 0.996222814 -0.06134263497 0.996222814 -0.06134263497 0.003777185999 0.06134263497
9850000000 0.003815679594 0.06165322525 0.9961843204 -0.06165322525 0.9961843204 -0.06165322525 0.003815679594 0.06165322525
9900000000 0.003854366089 0.06196377935 0.9961456339 -0.06196377935 0.9961456339 -0.06196377935 0.003854366089 0.06196377935
9950000000 0.003893245437 0.06227429708 0.9961067546 -0.06227429708 0.9961067546 -0.06227429708 0.003893245437 0.06227429708
1e+10 0.003932317593 0.06258477827 0.9960676824 -0.06258477827 0.9960676824 -0.06258477827 0.003932317593 0.06258477827
1.005e+10 0.003971582511 0.06289522274 0.9960284175 -0.06289522274 0.9960284175 -0.06289522274 0.003971582511 0.06289522274
1.01e+10 0.004011040146 0.06320563031 0.9959889599 -0.06320563031 0.9959889599 -0.06320563031 0.004011040146 0.06320563031
1.015e+10 0.00405069045 0.06351600079 0.9959493095 -0.06351600079 0.9959493095 -0.06351600079 0.00405069045 0.06351600079
1.02e+10 0.004090533378 0.06382633403 0.9959094666 -0.06382633403 0.9959094666 -0.06382633403 0.004090533378 0.06382633403
1.025e+10 0.004130568884 0.06413662982 0.9958694311 -0.06413662982 0.9958694311 -0.06413662982 0.004130568884 0.06413662982
1.03e+10 0.00417079692 0.064446888 0.9958292031 -0.064446888 0.9958292031 -0.064446888 0.00417079692 0.064446888
1.035e+10 0.004211217438 0.06475710838 0.9957887826 -0.06475710838 0.9957887826 -0.06475710838 0.004211217438 0.06475710838
1.04e+10 0.004251830393 0.0650672908 0.9957481696 -0.0650672908 0.9957481696 -0.0650672908 0.004251830393 0.0650672908
1.045e+10 0.004292635737 0.06537743506 0.9957073643 -0.06537743506 0.9957073643 -0.06537743506 0.004292635737 0.06537743506
1.05e+10 0.004333633421 0.065687541 0.9956663666 -0.065687541 0.9956663666 -0.065687541 0.004333633421 0.065687541
1.055e+10 0.004374823398 0.06599760843 0.9956251766 -0.06599760843 0.9956251766 -0.06599760843 0.004374823398 0.06599760843
1.06e+10 0.004416205619 0.06630763717 0.9955837944 -0.06630763717 0.9955837944 -0.06630763717 0.004416205619 0.06630763717
1.065e+10 0.004457780037 0.06661762705 0.99554222 -0.06661762705 0.99554222 -0.06661762705 0.004457780037 0.06661762705
1.07e+10 0.004499546603 0.0669275779 0.9955004534 -0.0669275779 0.9955004534 -0.0669275779 0.004499546603 0.0669275779
1.075e+10 0.004541505267 0.06723748952 0.9954584947 -0.06723748952 0.9954584947 -0.06723748952 0.004541505267 0.06723748952
1.08e+10 0.004583655982 0.06754736175 0.995416344 -0.06754736175 0.995416344 -0.06754736175 0.004583655982 0.06754736175
1.085e+10 0.004625998697 0.06785719441 0.9953740013 -0.06785719441 0.9953740013 -0.06785719441 0.004625998697 0.06785719441
1.09e+10 0.004668533363 0.06816698731 0.9953314666 -0.06816698731 0.9953314666 -0.06816698731 0.004668533363 0.06816698731
1.095e+10 0.004711259931 0.06847674029 0.9952887401 -0.06847674029 0.9952887401 -0.06847674029 0.004711259931 0.06847674029
1.1e+10 0.00475417835 0.06878645316 0.9952458216 -0.06878645316 0.9952458216 -0.06878645316 0.00475417835 0.06878645316
1.105e+10 0.004797288571 0.06909612575 0.9952027114 -0.06909612575 0.9952027114 -0.06909612575 0.004797288571 0.06909612575
1.11e+10 0.004840590543 0.06940575788 0.9951594095 -0.06940575788 0.9951594095 -0.06940575788 0.004840590543 0.06940575788
1.115e+10 0.004884084216 0.06971534937 0.9951159158 -0.06971534937 0.9951159158 -0.06971534937 0.004884084216 0.06971534937
1.12e+10 0.004927769538 0.07002490004 0.9950722305 -0.07002490004 0.9950722305 -0.07002490004 0.004927769538 0.07002490004
1.125e+10 0.00497164646 0.07033440973 0.9950283535 -0.07033440973 0.9950283535 -0.07033440973 0.00497164646 0.07033440973
1.13e+10 0.005015714929 0.07064387824 0.9949842851 -0.07064387824 0.9949842851 -0.07064387824 0.005015714929 0.07064387824
1.135e+10 0.005059974895 0.07095330541 0.9949400251 -0.07095330541 0.9949400251 -0.07095330541 0.005059974895 0.07095330541
1.14e+10 0.005104426305 0.07126269106 0.9948955737 -0.07126269106 0.9948955737 -0.07126269106 0.005104426305 0.07126269106
1.145e+10 0.005149069108 0.07157203501 0.9948509309 -0.07157203501 0.9948509309 -0.07157203501 0.005149069108 0.07157203501
1.15e+10 0.005193903252 0.07188133708 0.9948060967 -0.07188133708 0.9948060967 -0.07188133708 0.005193903252 0.07188133708
1.155e+10 0.005238928684 0.0721905971 0.9947610713 -0.0721905971 0.9947610713 -0.0721905971 0.005238928684 0.0721905971
1.16e+10 0.005284145352 0.0724998149 0.9947158546 -0.0724998149 0.9947158546 -0.0724998149 0.005284145352 0.0724998149
1.165e+10 0.005329553203 0.07280899028 0.9946704468 -0.07280899028 0.9946704468 -0.07280899028 0.005329553203 0.07280899028
1.17e+10 0.005375152185 0.07311812309 0.9946248478 -0.07311812309 0.9946248478 -0.07311812309 0.005375152185 0.07311812309
1.175e+10 0.005420942244 0.07342721314 0.9945790578 -0.07342721314 0.9945790578 -0.07342721314 0.005420942244 0.07342721314
1.18e+10 0.005466923327 0.07373626026 0.9945330767 -0.07373626026 0.9945330767 -0.07373626026 0.005466923327 0.07373626026
1.185e+10 0.00551309538 0.07404526426 0.9944869046 -0.07404526426 0.9944869046 -0.07404526426 0.00551309538 0.07404526426
1.19e+10 0.00555945835 0.07435422498 0.9944405417 -0.07435422498 0.9944405417 -0.07435422498 0.00555945835 0.07435422498
1.195e+10 0.005606012182 0.07466314224 0.9943939878 -0.07466314224 0.9943939878 -0.07466314224 0.005606012182 0.07466314224
1.2e+10 0.005652756822 0.07497201586 0.9943472432 -0.07497201586 0.9943472432 -0.07497201586 0.005652756822 0.07497201586
1.205e+10 0.005699692216 0.07528084567 0.9943003078 -0.07528084567 0.9943003078 -0.07528084567 0.005699692216 0.07528084567
1.21e+10 0.00574681831 0.07558963149 0.9942531817 -0.07558963149 0.9942531817 -0.07558963149 0.00574681831 0.07558963149
1.215e+10 0.005794135047 0.07589837315 0.994205865 -0.07589837315 0.994205865 -0.07589837315 0.005794135047 0.07589837315
1.22e+10 0.005841642374 0.07620707046 0.9941583576 -0.07620707046 0.9941583576 -0.07620707046 0.005841642374 0.07620707046
1.225e+10 0.005889340235 0.07651572327 0.9941106598 -0.07651572327 0.9941106598 -0.07651572327 0.005889340235 0.07651572327
1.23e+10 0.005937228575 0.07682433138 0.9940627714 -0.07682433138 0.9940627714 -0.07682433138 0.005937228575 0.07682433138
1.235e+10 0.005985307337 0.07713289462 0.9940146927 -0.07713289462 0.9940146927 -0.07713289462 0.005985307337 0.07713289462
1.24e+10 0.006033576466 0.07744141283 0.9939664235 -0.07744141283 0.9939664235 -0.07744141283 0.006033576466 0.07744141283
1.245e+10 0.006082035906 0.07774988582 0.9939179641 -0.07774988582 0.9939179641 -0.07774988582 0.006082035906 0.07774988582
1.25e+10 0.0061306856 0.07805831342 0.9938693144 -0.07805831342 0.9938693144 -0.07805831342 0.0061306856 0.07805831342
1.255e+10 0.006179525491 0.07836669545 0.9938204745 -0.07836669545 0.9938204745 -0.07836669545 0.006179525491 0.07836669545
1.26e+10 0.006228555524 0.07867503175 0.9937714445 -0.07867503175 0.9937714445 -0.07867503175 0.006228555524 0.07867503175
1.265e+10 0.006277775641 0.07898332213 0.9937222244 -0.07898332213 0.9937222244 -0.07898332213 0.006277775641 0.07898332213
1.27e+10 0.006327185785 0.07929156642 0.9936728142 -0.07929156642 0.9936728142 -0.07929156642 0.006327185785 0.07929156642
1.275e+10 0.006376785898 0.07959976444 0.9936232141 -0.07959976444 0.9936232141 -0.07959976444 0.006376785898 0.07959976444
1.28e+10 0.006426575922 0.07990791603 0.9935734241 -0.07990791603 0.9935734241 -0.07990791603 0.006426575922 0.07990791603
1.285e+10 0.006476555801 0.080216021 0.9935234442 -0.080216021 0.9935234442 -0.080216021 0.006476555801 0.080216021
1.29e+10 0.006526725475 0.08052407919 0.9934732745 -0.08052407919 0.9934732745 -0.08052407919 0.006526725475 0.08052407919
1.295e+10 0.006577084887 0.08083209042 0.9934229151 -0.08083209042 0.9934229151 -0.08083209042 0.006577084887 0.08083209042
1.3e+10 0.006627633978 0.08114005451 0.993372366 -0.08114005451 0.993372366 -0.08114005451 0.006627633978 0.08114005451
1.305e+10 0.00667837269 0.08144797129 0.9933216273 -0.08144797129 0.9933216273 -0.08144797129 0.00667837269 0.08144797129
1.31e+10 0.006729300963 0.0817558406 0.993270699 -0.0817558406 0.993270699 -0.0817558406 0.006729300963 0.0817558406
1.315e+10 0.006780418738 0.08206366224 0.9932195813 -0.08206366224 0.9932195813 -0.08206366224 0.006780418738 0.08206366224
1.32e+10 0.006831725957 0.08237143605 0.993168274 -0.08237143605 0.993168274 -0.08237143605 0.006831725957 0.08237143605
1.325e+10 0.006883222559 0.08267916186 0.9931167774 -0.08267916186 0.9931167774 -0.08267916186 0.006883222559 0.08267916186
1.33e+10 0.006934908485 0.08298683949 0.9930650915 -0.08298683949 0.9930650915 -0.08298683949 0.006934908485 0.08298683949
1.335e+10 0.006986783675 0.08329446878 0.9930132163 -0.08329446878 0.9930132163 -0.08329446878 0.006986783675 0.08329446878
1.34e+10 0.007038848068 0.08360204953 0.9929611519 -0.08360204953 0.9929611519 -0.08360204953 0.007038848068 0.08360204953
1.345e+10 0.007091101605 0.08390958159 0.9929088984 -0.08390958159 0.9929088984 -0.08390958159 0.007091101605 0.08390958159
1.35e+10 0.007143544225 0.08421706478 0.9928564558 -0.08421706478 0.9928564558 -0.08421706478 0.007143544225 0.08421706478
1.355e+10 0.007196175866 0.08452449893 0.9928038241 -0.08452449893 0.9928038241 -0.08452449893 0.007196175866 0.08452449893
1.36e+10 0.007248996469 0.08483188386 0.9927510035 -0.08483188386 0.9927510035 -0.08483188386 0.007248996469 0.08483188386
1.365e+10 0.007302005971 0.0851392194 0.992697994 -0.0851392194 0.992697994 -0.0851392194 0.007302005971 0.0851392194
1.37e+10 0.007355204312 0.08544650538 0.9926447957 -0.08544650538 0.9926447957 -0.08544650538 0.007355204312 0.08544650538
1.375e+10 0.007408591429 0.08575374162 0.9925914086 -0.08575374162 0.9925914086 -0.08575374162 0.007408591429 0.08575374162
1.38e+10 0.007462167261 0.08606092796 0.9925378327 -0.08606092796 0.9925378327 -0.08606092796 0.007462167261 0.08606092796
1.385e+10 0.007515931746 0.08636806422 0.9924840683 -0.08636806422 0.9924840683 -0.08636806422 0.007515931746 0.08636806422
1.39e+10 0.007569884822 0.08667515022 0.9924301152 -0.08667515022 0.9924301152 -0.08667515022 0.007569884822 0.08667515022
1.395e+10 0.007624026426 0.0869821858 0.9923759736 -0.0869821858 0.9923759736 -0.0869821858 0.007624026426 0.0869821858
1.4e+10 0.007678356495 0.08728917079 0.9923216435 -0.08728917079 0.9923216435 -0.08728917079 0.007678356495 0.08728917079
1.405e+10 0.007732874967 0.087596105 0.992267125 -0.087596105 0.992267125 -0.087596105 0.007732874967 0.087596105
1.41e+10 0.007787581778 0.08790298828 0.9922124182 -0.08790298828 0.9922124182 -0.08790298828 0.007787581778 0.08790298828
1.415e+10 0.007842476866 0.08820982044 0.9921575231 -0.08820982044 0.9921575231 -0.08820982044 0.007842476866 0.08820982044
1.42e+10 0.007897560166 0.08851660132 0.9921024398 -0.08851660132 0.9921024398 -0.08851660132 0.007897560166 0.08851660132
1.425e+10 0.007952831615 0.08882333074 0.9920471684 -0.08882333074 0.9920471684 -0.08882333074 0.007952831615 0.08882333074
1.43e+10 0.008008291149 0.08913000854 0.9919917089 -0.08913000854 0.9919917089 -0.08913000854 0.008008291149 0.08913000854
1.435e+10 0.008063938704 0.08943663453 0.9919360613 -0.08943663453 0.9919360613 -0.08943663453 0.008063938704 0.08943663453
1.44e+10 0.008119774216 0.08974320856 0.9918802258 -0.08974320856 0.9918802258 -0.08974320856 0.008119774216 0.08974320856
1.445e+10 0.00817579762 0.09004973044 0.9918242024 -0.09004973044 0.9918242024 -0.09004973044 0.00817579762 0.09004973044
1.45e+10 0.008232008851 0.09035620002 0.9917679911 -0.09035620002 0.9917679911 -0.09035620002 0.008232008851 0.09035620002
1.455e+10 0.008288407845 0.0906626171 0.9917115922 -0.0906626171 0.9917115922 -0.0906626171 0.008288407845 0.0906626171
1.46e+10 0.008344994536 0.09096898154 0.9916550055 -0.09096898154 0.9916550055 -0.09096898154 0.008344994536 0.09096898154
1.465e+10 0.008401768859 0.09127529315 0.9915982311 -0.09127529315 0.9915982311 -0.09127529315 0.008401768859 0.09127529315
1.47e+10 0.008458730748 0.09158155176 0.9915412693 -0.09158155176 0.9915412693 -0.09158155176 0.008458730748 0.09158155176
1.475e+10 0.008515880138 0.0918877572 0.9914841199 -0.0918877572 0.9914841199 -0.0918877572 0.008515880138 0.0918877572
1.48e+10 0.008573216962 0.09219390931 0.991426783 -0.09219390931 0.991426783 -0.09219390931 0.008573216962 0.09219390931
1.485e+10 0.008630741155 0.0925000079 0.9913692588 -0.0925000079 0.9913692588 -0.0925000079 0.008630741155 0.0925000079
1.49e+10 0.00868845265 0.09280605282 0.9913115474 -0.09280605282 0.9913115474 -0.09280605282 0.00868845265 0.09280605282
1.495e+10 0.00874635138 0.09311204389 0.9912536486 -0.09311204389 0.9912536486 -0.09311204389 0.00874635138 0.09311204389
1.5e+10 0.008804437279 0.09341798094 0.9911955627 -0.09341798094 0.9911955627 -0.09341798094 0.008804437279 0.09341798094
1.505e+10 0.00886271028 0.09372386381 0.9911372897 -0.09372386381 0.9911372897 -0.09372386381 0.00886271028 0.09372386381
1.51e+10 0.008921170315 0.09402969231 0.9910788297 -0.09402969231 0.9910788297 -0.09402969231 0.008921170315 0.09402969231
1.515e+10 0.008979817318 0.09433546628 0.9910201827 -0.09433546628 0.9910201827 -0.09433546628 0.008979817318 0.09433546628
1.52e+10 0.009038651219 0.09464118556 0.9909613488 -0.09464118556 0.9909613488 -0.09464118556 0.009038651219 0.09464118556
1.525e+10 0.009097671953 0.09494684996 0.990902328 -0.09494684996 0.990902328 -0.09494684996 0.009097671953 0.09494684996
1.53e+10 0.00915687945 0.09525245933 0.9908431205 -0.09525245933 0.9908431205 -0.09525245933 0.00915687945 0.09525245933
1.535e+10 0.009216273643 0.09555801349 0.9907837264 -0.09555801349 0.9907837264 -0.09555801349 0.009216273643 0.09555801349
1.54e+10 0.009275854462 0.09586351228 0.9907241455 -0.09586351228 0.9907241455 -0.09586351228 0.009275854462 0.09586351228
1.545e+10 0.00933562184 0.09616895552 0.9906643782 -0.09616895552 0.9906643782 -0.09616895552 0.00933562184 0.09616895552
1.55e+10 0.009395575708 0.09647434304 0.9906044243 -0.09647434304 0.9906044243 -0.09647434304 0.009395575708 0.09647434304
1.555e+10 0.009455715996 0.09677967468 0.990544284 -0.09677967468 0.990544284 -0.09677967468 0.009455715996 0.09677967468
1.56e+10 0.009516042636 0.09708495027 0.9904839574 -0.09708495027 0.9904839574 -0.09708495027 0.009516042636 0.09708495027
1.565e+10 0.009576555557 0.09739016963 0.9904234444 -0.09739016963 0.9904234444 -0.09739016963 0.009576555557 0.09739016963
1.57e+10 0.009637254691 0.09769533261 0.9903627453 -0.09769533261 0.9903627453 -0.09769533261 0.009637254691 0.09769533261
1.575e+10 0.009698139967 0.09800043902 0.99030186 -0.09800043902 0.99030186 -0.09800043902 0.009698139967 0.09800043902
1.58e+10 0.009759211316 0.09830548871 0.9902407887 -0.09830548871 0.9902407887 -0.09830548871 0.009759211316 0.09830548871
1.585e+10 0.009820468667 0.0986104815 0.9901795313 -0.0986104815 0.9901795313 -0.0986104815 0.009820468667 0.0986104815
1.59e+10 0.009881911949 0.09891541723 0.9901180881 -0.09891541723 0.9901180881 -0.09891541723 0.009881911949 0.09891541723
1.595e+10 0.009943541093 0.09922029572 0.9900564589 -0.09922029572 0.9900564589 -0.09922029572 0.009943541093 0.09922029572
1.6e+10 0.01000535603 0.09952511682 0.989994644 -0.09952511682 0.989994644 -0.09952511682 0.01000535603 0.09952511682
1.605e+10 0.01006735668 0.09982988035 0.9899326433 -0.09982988035 0.9899326433 -0.09982988035 0.01006735668 0.09982988035
1.61e+10 0.01012954298 0.1001345861 0.989870457 -0.1001345861 0.989870457 -0.1001345861 0.01012954298 0.1001345861
1.615e+10 0.01019191486 0.100439234 0.9898080851 -0.100439234 0.9898080851 -0.100439234 0.01019191486 0.100439234
1.62e+10 0.01025447224 0.1007438238 0.9897455278 -0.1007438238 0.9897455278 -0.1007438238 0.01025447224 0.1007438238
1.625e+10 0.01031721506 0.1010483554 0.9896827849 -0.1010483554 0.9896827849 -0.1010483554 0.01031721506 0.1010483554
1.63e+10 0.01038014324 0.1013528286 0.9896198568 -0.1013528286 0.9896198568 -0.1013528286 0.01038014324 0.1013528286
1.635e+10 0.0104432567 0.1016572432 0.9895567433 -0.1016572432 0.9895567433 -0.1016572432 0.0104432567 0.1016572432
1.64e+10 0.01050655538 0.101961599 0.9894934446 -0.101961599 0.9894934446 -0.101961599 0.01050655538 0.101961599
1.645e+10 0.01057003921 0.102265896 0.9894299608 -0.102265896 0.9894299608 -0.102265896 0.01057003921 0.102265896
1.65e+10 0.01063370811 0.1025701339 0.9893662919 -0.1025701339 0.9893662919 -0.1025701339 0.01063370811 0.1025701339
1.655e+10 0.010697562 0.1028743125 0.989302438 -0.1028743125 0.989302438 -0.1028743125 0.010697562 0.1028743125
1.66e+10 0.01076160082 0.1031784317 0.9892383992 -0.1031784317 0.9892383992 -0.1031784317 0.01076160082 0.1031784317
1.665e+10 0.01082582449 0.1034824914 0.9891741755 -0.1034824914 0.9891741755 -0.1034824914 0.01082582449 0.1034824914
1.67e+10 0.01089023294 0.1037864913 0.9891097671 -0.1037864913 0.9891097671 -0.1037864913 0.01089023294 0.1037864913
1.675e+10 0.01095482609 0.1040904313 0.9890451739 -0.1040904313 0.9890451739 -0.1040904313 0.01095482609 0.1040904313
1.68e+10 0.01101960388 0.1043943112 0.9889803961 -0.1043943112 0.9889803961 -0.1043943112 0.01101960388 0.1043943112
1.685e+10 0.01108456621 0.1046981309 0.9889154338 -0.1046981309 0.9889154338 -0.1046981309 0.01108456621 0.1046981309
1.69e+10 0.01114971303 0.1050018901 0.988850287 -0.1050018901 0.988850287 -0.1050018901 0.01114971303 0.1050018901
1.695e+10 0.01121504426 0.1053055888 0.9887849557 -0.1053055888 0.9887849557 -0.1053055888 0.01121504426 0.1053055888
1.7e+10 0.01128055982 0.1056092268 0.9887194402 -0.1056092268 0.9887194402 -0.1056092268 0.01128055982 0.1056092268
1.705e+10 0.01134625963 0.1059128039 0.9886537404 -0.1059128039 0.9886537404 -0.1059128039 0.01134625963 0.1059128039
1.71e+10 0.01141214363 0.1062163199 0.9885878564 -0.1062163199 0.9885878564 -0.1062163199 0.01141214363 0.1062163199
1.715e+10 0.01147821173 0.1065197746 0.9885217883 -0.1065197746 0.9885217883 -0.1065197746 0.01147821173 0.1065197746
1.72e+10 0.01154446386 0.106823168 0.9884555361 -0.106823168 0.9884555361 -0.106823168 0.01154446386 0.106823168
1.725e+10 0.01161089995 0.1071264998 0.9883891 -0.1071264998 0.9883891 -0.1071264998 0.01161089995 0.1071264998
1.73e+10 0.01167751992 0.1074297698 0.9883224801 -0.1074297698 0.9883224801 -0.1074297698 0.01167751992 0.1074297698
1.735e+10 0.01174432369 0.107732978 0.9882556763 -0.107732978 0.9882556763 -0.107732978 0.01174432369 0.107732978
1.74e+10 0.01181131119 0.1080361241 0.9881886888 -0.1080361241 0.9881886888 -0.1080361241 0.01181131119 0.1080361241
1.745e+10 0.01187848233 0.108339208 0.9881215177 -0.108339208 0.9881215177 -0.108339208 0.01187848233 0.108339208
1.75e+10 0.01194583705 0.1086422295 0.9880541629 -0.1086422295 0.9880541629 -0.1086422295 0.01194583705 0.1086422295
1.755e+10 0.01201337527 0.1089451884 0.9879866247 -0.1089451884 0.9879866247 -0.1089451884 0.01201337527 0.1089451884
1.76e+10 0.0120810969 0.1092480846 0.9879189031 -0.1092480846 0.9879189031 -0.1092480846 0.0120810969 0.1092480846
1.765e+10 0.01214900188 0.109550918 0.9878509981 -0.109550918 0.9878509981 -0.109550918 0.01214900188 0.109550918
1.77e+10 0.01221709012 0.1098536883 0.9877829099 -0.1098536883 0.9877829099 -0.1098536883 0.01221709012 0.1098536883
1.775e+10 0.01228536154 0.1101563953 0.9877146385 -0.1101563953 0.9877146385 -0.1101563953 0.01228536154 0.1101563953
1.78e+10 0.01235381608 0.110459039 0.9876461839 -0.110459039 0.9876461839 -0.110459039 0.01235381608 0.110459039
1.785e+10 0.01242245365 0.1107616192 0.9875775464 -0.1107616192 0.9875775464 -0.1107616192 0.01242245365 0.1107616192
1.79e+10 0.01249127416 0.1110641357 0.9875087258 -0.1110641357 0.9875087258 -0.1110641357 0.01249127416 0.1110641357
1.795e+10 0.01256027755 0.1113665883 0.9874397224 -0.1113665883 0.9874397224 -0.1113665883 0.01256027755 0.1113665883
1.8e+10 0.01262946374 0.1116689768 0.9873705363 -0.1116689768 0.9873705363 -0.1116689768 0.01262946374 0.1116689768
1.805e+10 0.01269883264 0.1119713012 0.9873011674 -0.1119713012 0.9873011674 -0.1119713012 0.01269883264 0.1119713012
1.81e+10 0.01276838418 0.1122735612 0.9872316158 -0.1122735612 0.9872316158 -0.1122735612 0.01276838418 0.1122735612
1.815e+10 0.01283811828 0.1125757567 0.9871618817 -0.1125757567 0.9871618817 -0.1125757567 0.01283811828 0.1125757567
1.82e+10 0.01290803486 0.1128778875 0.9870919651 -0.1128778875 0.9870919651 -0.1128778875 0.01290803486 0.1128778875
1.825e+10 0.01297813383 0.1131799535 0.9870218662 -0.1131799535 0.9870218662 -0.1131799535 0.01297813383 0.1131799535
1.83e+10 0.01304841512 0.1134819545 0.9869515849 -0.1134819545 0.9869515849 -0.1134819545 0.01304841512 0.1134819545
1.835e+10 0.01311887866 0.1137838902 0.9868811213 -0.1137838902 0.9868811213 -0.1137838902 0.01311887866 0.1137838902
1.84e+10 0.01318952435 0.1140857607 0.9868104757 -0.1140857607 0.9868104757 -0.1140857607 0.01318952435 0.1140857607
1.845e+10 0.01326035212 0.1143875657 0.9867396479 -0.1143875657 0.9867396479 -0.1143875657 0.01326035212 0.1143875657
1.85e+10 0.01333136188 0.114689305 0.9866686381 -0.114689305 0.9866686381 -0.114689305 0.01333136188 0.114689305
1.855e+10 0.01340255357 0.1149909785 0.9865974464 -0.1149909785 0.9865974464 -0.1149909785 0.01340255357 0.1149909785
1.86e+10 0.01347392709 0.115292586 0.9865260729 -0.115292586 0.9865260729 -0.115292586 0.01347392709 0.115292586
1.865e+10 0.01354548236 0.1155941273 0.9864545176 -0.1155941273 0.9864545176 -0.1155941273 0.01354548236 0.1155941273
1.87e+10 0.01361721931 0.1158956024 0.9863827807 -0.1158956024 0.9863827807 -0.1158956024 0.01361721931 0.1158956024
1.875e+10 0.01368913785 0.116197011 0.9863108622 -0.116197011 0.9863108622 -0.116197011 0.01368913785 0.116197011
1.88e+10 0.0137612379 0.1164983529 0.9862387621 -0.1164983529 0.9862387621 -0.1164983529 0.0137612379 0.1164983529
1.885e+10 0.01383351938 0.1167996281 0.9861664806 -0.1167996281 0.9861664806 -0.1167996281 0.01383351938 0.1167996281
1.89e+10 0.0139059822 0.1171008363 0.9860940178 -0.1171008363 0.9860940178 -0.1171008363 0.0139059822 0.1171008363
1.895e+10 0.01397862629 0.1174019774 0.9860213737 -0.1174019774 0.9860213737 -0.1174019774 0.01397862629 0.1174019774
1.9e+10 0.01405145156 0.1177030512 0.9859485484 -0.1177030512 0.9859485484 -0.1177030512 0.01405145156 0.1177030512
1.905e+10 0.01412445793 0.1180040576 0.9858755421 -0.1180040576 0.9858755421 -0.1180040576 0.01412445793 0.1180040576
1.91e+10 0.01419764531 0.1183049964 0.9858023547 -0.1183049964 0.9858023547 -0.1183049964 0.01419764531 0.1183049964
1.915e+10 0.01427101363 0.1186058675 0.9857289864 -0.1186058675 0.9857289864 -0.1186058675 0.01427101363 0.1186058675
1.92e+10 0.0143445628 0.1189066706 0.9856554372 -0.1189066706 0.9856554372 -0.1189066706 0.0143445628 0.1189066706
1.925e+10 0.01441829273 0.1192074057 0.9855817073 -0.1192074057 0.9855817073 -0.1192074057 0.01441829273 0.1192074057
1.93e+10 0.01449220335 0.1195080725 0.9855077967 -0.1195080725 0.9855077967 -0.1195080725 0.01449220335 0.1195080725
1.935e+10 0.01456629456 0.1198086709 0.9854337054 -0.1198086709 0.9854337054 -0.1198086709 0.01456629456 0.1198086709
1.94e+10 0.01464056629 0.1201092008 0.9853594337 -0.1201092008 0.9853594337 -0.1201092008 0.01464056629 0.1201092008
1.945e+10 0.01471501845 0.1204096619 0.9852849815 -0.1204096619 0.9852849815 -0.1204096619 0.01471501845 0.1204096619
1.95e+10 0.01478965096 0.1207100542 0.985210349 -0.1207100542 0.985210349 -0.1207100542 0.01478965096 0.1207100542
1.955e+10 0.01486446373 0.1210103774 0.9851355363 -0.1210103774 0.9851355363 -0.1210103774 0.01486446373 0.1210103774
1.96e+10 0.01493945668 0.1213106315 0.9850605433 -0.1213106315 0.9850605433 -0.1213106315 0.01493945668 0.1213106315
1.965e+10 0.01501462971 0.1216108162 0.9849853703 -0.1216108162 0.9849853703 -0.1216108162 0.01501462971 0.1216108162
1.97e+10 0.01508998276 0.1219109313 0.9849100172 -0.1219109313 0.9849100172 -0.1219109313 0.01508998276 0.1219109313
1.975e+10 0.01516551573 0.1222109768 0.9848344843 -0.1222109768 0.9848344843 -0.1222109768 0.01516551573 0.1222109768
1.98e+10 0.01524122853 0.1225109525 0.9847587715 -0.1225109525 0.9847587715 -0.1225109525 0.01524122853 0.1225109525
1.985e+10 0.01531712109 0.1228108582 0.9846828789 -0.1228108582 0.9846828789 -0.1228108582 0.01531712109 0.1228108582
1.99e+10 0.01539319331 0.1231106937 0.9846068067 -0.1231106937 0.9846068067 -0.1231106937 0.01539319331 0.1231106937
1.995e+10 0.01546944511 0.1234104589 0.9845305549 -0.1234104589 0.9845305549 -0.1234104589 0.01546944511 0.1234104589
2e+10 0.0155458764 0.1237101537 0.9844541236 -0.1237101537 0.9844541236 -0.1237101537 0.0155458764 0.1237101537
2.005e+10 0.0156224871 0.1240097778 0.9843775129 -0.1240097778 0.9843775129 -0.1240097778 0.0156224871 0.1240097778
2.01e+10 0.01569927712 0.1243093312 0.9843007229 -0.1243093312 0.9843007229 -0.1243093312 0.01569927712 0.1243093312
2.015e+10 0.01577624637 0.1246088136 0.9842237536 -0.1246088136 0.9842237536 -0.1246088136 0.01577624637 0.1246088136
2.02e+10 0.01585339477 0.1249082249 0.9841466052 -0.1249082249 0.9841466052 -0.1249082249 0.01585339477 0.1249082249
2.025e+10 0.01593072223 0.125207565 0.9840692778 -0.125207565 0.9840692778 -0.125207565 0.01593072223 0.125207565
2.03e+10 0.01600822866 0.1255068336 0.9839917713 -0.1255068336 0.9839917713 -0.1255068336 0.01600822866 0.1255068336
2.035e+10 0.01608591398 0.1258060307 0.983914086 -0.1258060307 0.983914086 -0.1258060307 0.01608591398 0.1258060307
2.04e+10 0.01616377809 0.126105156 0.9838362219 -0.126105156 0.9838362219 -0.126105156 0.01616377809 0.126105156
2.045e+10 0.01624182091 0.1264042095 0.9837581791 -0.1264042095 0.9837581791 -0.1264042095 0.01624182091 0.1264042095
2.05e+10 0.01632004236 0.1267031909 0.9836799576 -0.1267031909 0.9836799576 -0.1267031909 0.01632004236 0.1267031909
2.055e+10 0.01639844233 0.1270021001 0.9836015577 -0.1270021001 0.9836015577 -0.1270021001 0.01639844233 0.1270021001
2.06e+10 0.01647702076 0.1273009369 0.9835229792 -0.1273009369 0.9835229792 -0.1273009369 0.01647702076 0.1273009369
2.065e+10 0.01655577753 0.1275997013 0.9834442225 -0.1275997013 0.9834442225 -0.1275997013 0.01655577753 0.1275997013
2.07e+10 0.01663471258 0.1278983929 0.9833652874 -0.1278983929 0.9833652874 -0.1278983929 0.01663471258 0.1278983929
2.075e+10 0.0167138258 0.1281970118 0.9832861742 -0.1281970118 0.9832861742 -0.1281970118 0.0167138258 0.1281970118
2.08e+10 0.01679311712 0.1284955576 0.9832068829 -0.1284955576 0.9832068829 -0.1284955576 0.01679311712 0.1284955576
2.085e+10 0.01687258643 0.1287940304 0.9831274136 -0.1287940304 0.9831274136 -0.1287940304 0.01687258643 0.1287940304
2.09e+10 0.01695223365 0.1290924298 0.9830477663 -0.1290924298 0.9830477663 -0.1290924298 0.01695223365 0.1290924298
2.095e+10 0.0170320587 0.1293907558 0.9829679413 -0.1293907558 0.9829679413 -0.1293907558 0.0170320587 0.1293907558
2.1e+10 0.01711206148 0.1296890081 0.9828879385 -0.1296890081 0.9828879385 -0.1296890081 0.01711206148 0.1296890081
2.105e+10 0.0171922419 0.1299871867 0.9828077581 -0.1299871867 0.9828077581 -0.1299871867 0.0171922419 0.1299871867
2.11e+10 0.01727259987 0.1302852914 0.9827274001 -0.1302852914 0.9827274001 -0.1302852914 0.01727259987 0.1302852914
2.115e+10 0.0173531353 0.130583322 0.9826468647 -0.130583322 0.9826468647 -0.130583322 0.0173531353 0.130583322
2.12e+10 0.0174338481 0.1308812784 0.9825661519 -0.1308812784 0.9825661519 -0.1308812784 0.0174338481 0.1308812784
2.125e+10 0.01751473819 0.1311791604 0.9824852618 -0.1311791604 0.9824852618 -0.1311791604 0.01751473819 0.1311791604
2.13e+10 0.01759580546 0.1314769679 0.9824041945 -0.1314769679 0.9824041945 -0.1314769679 0.01759580546 0.1314769679
2.135e+10 0.01767704983 0.1317747007 0.9823229502 -0.1317747007 0.9823229502 -0.1317747007 0.01767704983 0.1317747007
2.14e+10 0.0177584712 0.1320723586 0.9822415288 -0.1320723586 0.9822415288 -0.1320723586 0.0177584712 0.1320723586
2.145e+10 0.0178400695 0.1323699415 0.9821599305 -0.1323699415 0.9821599305 -0.1323699415 0.0178400695 0.1323699415
2.15e+10 0.01792184461 0.1326674493 0.9820781554 -0.1326674493 0.9820781554 -0.1326674493 0.01792184461 0.1326674493
2.155e+10 0.01800379646 0.1329648817 0.9819962035 -0.1329648817 0.9819962035 -0.1329648817 0.01800379646 0.1329648817
2.16e+10 0.01808592495 0.1332622387 0.981914075 -0.1332622387 0.981914075 -0.1332622387 0.01808592495 0.1332622387
2.165e+10 0.01816822999 0.1335595201 0.98183177 -0.1335595201 0.98183177 -0.1335595201 0.01816822999 0.1335595201
2.17e+10 0.01825071148 0.1338567257 0.9817492885 -0.1338567257 0.9817492885 -0.1338567257 0.01825071148 0.1338567257
2.175e+10 0.01833336934 0.1341538554 0.9816666307 -0.1341538554 0.9816666307 -0.1341538554 0.01833336934 0.1341538554
2.18e+10 0.01841620347 0.134450909 0.9815837965 -0.134450909 0.9815837965 -0.134450909 0.01841620347 0.134450909
2.185e+10 0.01849921378 0.1347478863 0.9815007862 -0.1347478863 0.9815007862 -0.1347478863 0.01849921378 0.1347478863
2.19e+10 0.01858240017 0.1350447873 0.9814175998 -0.1350447873 0.9814175998 -0.1350447873 0.01858240017 0.1350447873
2.195e+10 0.01866576256 0.1353416117 0.9813342374 -0.1353416117 0.9813342374 -0.1353416117 0.01866576256 0.1353416117
2.2e+10 0.01874930084 0.1356383595 0.9812506992 -0.1356383595 0.9812506992 -0.1356383595 0.01874930084 0.1356383595
2.205e+10 0.01883301493 0.1359350304 0.9811669851 -0.1359350304 0.9811669851 -0.1359350304 0.01883301493 0.1359350304
2.21e+10 0.01891690473 0.1362316243 0.9810830953 -0.1362316243 0.9810830953 -0.1362316243 0.01891690473 0.1362316243
2.215e+10 0.01900097015 0.136528141 0.9809990298 -0.136528141 0.9809990298 -0.136528141 0.01900097015 0.136528141
2.22e+10 0.0190852111 0.1368245804 0.9809147889 -0.1368245804 0.9809147889 -0.1368245804 0.0190852111 0.1368245804
2.225e+10 0.01916962747 0.1371209424 0.9808303725 -0.1371209424 0.9808303725 -0.1371209424 0.01916962747 0.1371209424
2.23e+10 0.01925421918 0.1374172268 0.9807457808 -0.1374172268 0.9807457808 -0.1374172268 0.01925421918 0.1374172268
2.235e+10 0.01933898613 0.1377134334 0.9806610139 -0.1377134334 0.9806610139 -0.1377134334 0.01933898613 0.1377134334
2.24e+10 0.01942392823 0.1380095621 0.9805760718 -0.1380095621 0.9805760718 -0.1380095621 0.01942392823 0.1380095621
2.245e+10 0.01950904538 0.1383056128 0.9804909546 -0.1383056128 0.9804909546 -0.1383056128 0.01950904538 0.1383056128
2.25e+10 0.01959433748 0.1386015852 0.9804056625 -0.1386015852 0.9804056625 -0.1386015852 0.01959433748 0.1386015852
2.255e+10 0.01967980445 0.1388974793 0.9803201955 -0.1388974793 0.9803201955 -0.1388974793 0.01967980445 0.1388974793
2.26e+10 0.01976544619 0.1391932948 0.9802345538 -0.1391932948 0.9802345538 -0.1391932948 0.01976544619 0.1391932948
2.265e+10 0.01985126259 0.1394890317 0.9801487374 -0.1394890317 0.9801487374 -0.1394890317 0.01985126259 0.1394890317
2.27e+10 0.01993725357 0.1397846898 0.9800627464 -0.1397846898 0.9800627464 -0.1397846898 0.01993725357 0.1397846898
2.275e+10 0.02002341903 0.1400802688 0.979976581 -0.1400802688 0.979976581 -0.1400802688 0.02002341903 0.1400802688
2.28e+10 0.02010975887 0.1403757688 0.9798902411 -0.1403757688 0.9798902411 -0.1403757688 0.02010975887 0.1403757688
2.285e+10 0.020196273 0.1406711895 0.979803727 -0.1406711895 0.979803727 -0.1406711895 0.020196273 0.1406711895
2.29e+10 0.02028296132 0.1409665308 0.9797170387 -0.1409665308 0.9797170387 -0.1409665308 0.02028296132 0.1409665308
2.295e+10 0.02036982374 0.1412617925 0.9796301763 -0.1412617925 0.9796301763 -0.1412617925 0.02036982374 0.1412617925
2.3e+10 0.02045686015 0.1415569745 0.9795431399 -0.1415569745 0.9795431399 -0.1415569745 0.02045686015 0.1415569745
2.305e+10 0.02054407046 0.1418520766 0.9794559295 -0.1418520766 0.9794559295 -0.1418520766 0.02054407046 0.1418520766
2.31e+10 0.02063145458 0.1421470987 0.9793685454 -0.1421470987 0.9793685454 -0.1421470987 0.02063145458 0.1421470987
2.315e+10 0.0207190124 0.1424420406 0.9792809876 -0.1424420406 0.9792809876 -0.1424420406 0.0207190124 0.1424420406
2.32e+10 0.02080674383 0.1427369022 0.9791932562 -0.1427369022 0.9791932562 -0.1427369022 0.02080674383 0.1427369022
2.325e+10 0.02089464878 0.1430316833 0.9791053512 -0.1430316833 0.9791053512 -0.1430316833 0.02089464878 0.1430316833
2.33e+10 0.02098272713 0.1433263838 0.9790172729 -0.1433263838 0.9790172729 -0.1433263838 0.02098272713 0.1433263838
2.335e+10 0.02107097881 0.1436210035 0.9789290212 -0.1436210035 0.9789290212 -0.1436210035 0.02107097881 0.1436210035
2.34e+10 0.0211594037 0.1439155424 0.9788405963 -0.1439155424 0.9788405963 -0.1439155424 0.0211594037 0.1439155424
2.345e+10 0.02124800171 0.1442100001 0.9787519983 -0.1442100001 0.9787519983 -0.1442100001 0.02124800171 0.1442100001
2.35e+10 0.02133677274 0.1445043766 0.9786632273 -0.1445043766 0.9786632273 -0.1445043766 0.02133677274 0.1445043766
2.355e+10 0.02142571669 0.1447986718 0.9785742833 -0.1447986718 0.9785742833 -0.1447986718 0.02142571669 0.1447986718
2.36e+10 0.02151483347 0.1450928855 0.9784851665 -0.1450928855 0.9784851665 -0.1450928855 0.02151483347 0.1450928855
2.365e+10 0.02160412298 0.1453870175 0.978395877 -0.1453870175 0.978395877 -0.1453870175 0.02160412298 0.1453870175
2.37e+10 0.02169358511 0.1456810677 0.9783064149 -0.1456810677 0.9783064149 -0.1456810677 0.02169358511 0.1456810677
2.375e+10 0.02178321977 0.1459750359 0.9782167802 -0.1459750359 0.9782167802 -0.1459750359 0.02178321977 0.1459750359
2.38e+10 0.02187302685 0.146268922 0.9781269731 -0.146268922 0.9781269731 -0.146268922 0.02187302685 0.146268922
2.385e+10 0.02196300627 0.1465627259 0.9780369937 -0.1465627259 0.9780369937 -0.1465627259 0.02196300627 0.1465627259
2.39e+10 0.02205315791 0.1468564474 0.9779468421 -0.1468564474 0.9779468421 -0.1468564474 0.02205315791 0.1468564474
2.395e+10 0.02214348168 0.1471500863 0.9778565183 -0.1471500863 0.9778565183 -0.1471500863 0.02214348168 0.1471500863
2.4e+10 0.02223397749 0.1474436426 0.9777660225 -0.1474436426 0.9777660225 -0.1474436426 0.02223397749 0.1474436426
2.405e+10 0.02232464522 0.147737116 0.9776753548 -0.147737116 0.9776753548 -0.147737116 0.02232464522 0.147737116
2.41e+10 0.02241548477 0.1480305064 0.9775845152 -0.1480305064 0.9775845152 -0.1480305064 0.02241548477 0.1480305064
2.415e+10 0.02250649606 0.1483238136 0.9774935039 -0.1483238136 0.9774935039 -0.1483238136 0.02250649606 0.1483238136
2.42e+10 0.02259767897 0.1486170376 0.977402321 -0.1486170376 0.977402321 -0.1486170376 0.02259767897 0.1486170376
2.425e+10 0.02268903341 0.1489101782 0.9773109666 -0.1489101782 0.9773109666 -0.1489101782 0.02268903341 0.1489101782
2.43e+10 0.02278055928 0.1492032352 0.9772194407 -0.1492032352 0.9772194407 -0.1492032352 0.02278055928 0.1492032352
2.435e+10 0.02287225647 0.1494962085 0.9771277435 -0.1494962085 0.9771277435 -0.1494962085 0.02287225647 0.1494962085
2.44e+10 0.02296412488 0.1497890979 0.9770358751 -0.1497890979 0.9770358751 -0.1497890979 0.02296412488 0.1497890979
2.445e+10 0.02305616442 0.1500819033 0.9769438356 -0.1500819033 0.9769438356 -0.1500819033 0.02305616442 0.1500819033
2.45e+10 0.02314837497 0.1503746246 0.976851625 -0.1503746246 0.976851625 -0.1503746246 0.02314837497 0.1503746246
2.455e+10 0.02324075645 0.1506672615 0.9767592436 -0.1506672615 0.9767592436 -0.1506672615 0.02324075645 0.1506672615
2.46e+10 0.02333330874 0.150959814 0.9766666913 -0.150959814 0.9766666913 -0.150959814 0.02333330874 0.150959814
2.465e+10 0.02342603174 0.1512522819 0.9765739683 -0.1512522819 0.9765739683 -0.1512522819 0.02342603174 0.1512522819
2.47e+10 0.02351892536 0.1515446651 0.9764810746 -0.1515446651 0.9764810746 -0.1515446651 0.02351892536 0.1515446651
2.475e+10 0.02361198948 0.1518369633 0.9763880105 -0.1518369633 0.9763880105 -0.1518369633 0.02361198948 0.1518369633
2.48e+10 0.02370522402 0.1521291766 0.976294776 -0.1521291766 0.976294776 -0.1521291766 0.02370522402 0.1521291766
2.485e+10 0.02379862886 0.1524213047 0.9762013711 -0.1524213047 0.9762013711 -0.1524213047 0.02379862886 0.1524213047
2.49e+10 0.0238922039 0.1527133475 0.9761077961 -0.1527133475 0.9761077961 -0.1527133475 0.0238922039 0.1527133475
2.495e+10 0.02398594904 0.1530053048 0.976014051 -0.1530053048 0.976014051 -0.1530053048 0.02398594904 0.1530053048
2.5e+10 0.02407986417 0.1532971765 0.9759201358 -0.1532971765 0.9759201358 -0.1532971765 0.02407986417 0.1532971765
2.505e+10 0.0241739492 0.1535889624 0.9758260508 -0.1535889624 0.9758260508 -0.1535889624 0.0241739492 0.1535889624
2.51e+10 0.02426820401 0.1538806625 0.975731796 -0.1538806625 0.975731796 -0.1538806625 0.02426820401 0.1538806625
2.515e+10 0.02436262851 0.1541722765 0.9756373715 -0.1541722765 0.9756373715 -0.1541722765 0.02436262851 0.1541722765
2.52e+10 0.02445722259 0.1544638043 0.9755427774 -0.1544638043 0.9755427774 -0.1544638043 0.02445722259 0.1544638043
2.525e+10 0.02455198615 0.1547552459 0.9754480139 -0.1547552459 0.9754480139 -0.1547552459 0.02455198615 0.1547552459
2.53e+10 0.02464691908 0.1550466009 0.9753530809 -0.1550466009 0.9753530809 -0.1550466009 0.02464691908 0.1550466009
2.535e+10 0.02474202128 0.1553378694 0.9752579787 -0.1553378694 0.9752579787 -0.1553378694 0.02474202128 0.1553378694
2.54e+10 0.02483729264 0.1556290511 0.9751627074 -0.1556290511 0.9751627074 -0.1556290511 0.02483729264 0.1556290511
2.545e+10 0.02493273307 0.1559201459 0.9750672669 -0.1559201459 0.9750672669 -0.1559201459 0.02493273307 0.1559201459
2.55e+10 0.02502834245 0.1562111536 0.9749716576 -0.1562111536 0.9749716576 -0.1562111536 0.02502834245 0.1562111536
2.555e+10 0.02512412068 0.1565020742 0.9748758793 -0.1565020742 0.9748758793 -0.1565020742 0.02512412068 0.1565020742
2.56e+10 0.02522006765 0.1567929075 0.9747799323 -0.1567929075 0.9747799323 -0.1567929075 0.02522006765 0.1567929075
2.565e+10 0.02531618326 0.1570836533 0.9746838167 -0.1570836533 0.9746838167 -0.1570836533 0.02531618326 0.1570836533
2.57e+10 0.02541246741 0.1573743115 0.9745875326 -0.1573743115 0.9745875326 -0.1573743115 0.02541246741 0.1573743115
2.575e+10 0.02550891999 0.1576648819 0.97449108 -0.1576648819 0.97449108 -0.1576648819 0.02550891999 0.1576648819
2.58e+10 0.02560554089 0.1579553645 0.9743944591 -0.1579553645 0.9743944591 -0.1579553645 0.02560554089 0.1579553645
2.585e+10 0.02570233001 0.158245759 0.97429767 -0.158245759 0.97429767 -0.158245759 0.02570233001 0.158245759
2.59e+10 0.02579928724 0.1585360654 0.9742007128 -0.1585360654 0.9742007128 -0.1585360654 0.02579928724 0.1585360654
2.595e+10 0.02589641248 0.1588262834 0.9741035875 -0.1588262834 0.9741035875 -0.1588262834 0.02589641248 0.1588262834
2.6e+10 0.02599370561 0.159116413 0.9740062944 -0.159116413 0.9740062944 -0.159116413 0.02599370561 0.159116413
2.605e+10 0.02609116654 0.159406454 0.9739088335 -0.159406454 0.9739088335 -0.159406454 0.02609116654 0.159406454
2.61e+10 0.02618879516 0.1596964062 0.9738112048 -0.1596964062 0.9738112048 -0.1596964062 0.02618879516 0.1596964062
2.615e+10 0.02628659135 0.1599862696 0.9737134086 -0.1599862696 0.9737134086 -0.1599862696 0.02628659135 0.1599862696
2.62e+10 0.02638455502 0.160276044 0.973615445 -0.160276044 0.973615445 -0.160276044 0.02638455502 0.160276044
2.625e+10 0.02648268605 0.1605657292 0.973517314 -0.1605657292 0.973517314 -0.1605657292 0.02648268605 0.1605657292
2.63e+10 0.02658098434 0.1608553251 0.9734190157 -0.1608553251 0.9734190157 -0.1608553251 0.02658098434 0.1608553251
2.635e+10 0.02667944978 0.1611448316 0.9733205502 -0.1611448316 0.9733205502 -0.1611448316 0.02667944978 0.1611448316
2.64e+10 0.02677808227 0.1614342485 0.9732219177 -0.1614342485 0.9732219177 -0.1614342485 0.02677808227 0.1614342485
2.645e+10 0.02687688169 0.1617235757 0.9731231183 -0.1617235757 0.9731231183 -0.1617235757 0.02687688169 0.1617235757
2.65e+10 0.02697584794 0.162012813 0.9730241521 -0.162012813 0.9730241521 -0.162012813 0.02697584794 0.162012813
2.655e+10 0.02707498091 0.1623019603 0.9729250191 -0.1623019603 0.9729250191 -0.1623019603 0.02707498091 0.1623019603
2.66e+10 0.02717428049 0.1625910175 0.9728257195 -0.1625910175 0.9728257195 -0.1625910175 0.02717428049 0.1625910175
2.665e+10 0.02727374658 0.1628799844 0.9727262534 -0.1628799844 0.9727262534 -0.1628799844 0.02727374658 0.1628799844
2.67e+10 0.02737337907 0.163168861 0.9726266209 -0.163168861 0.9726266209 -0.163168861 0.02737337907 0.163168861
2.675e+10 0.02747317784 0.1634576469 0.9725268222 -0.1634576469 0.9725268222 -0.1634576469 0.02747317784 0.1634576469
2.68e+10 0.02757314278 0.1637463422 0.9724268572 -0.1637463422 0.9724268572 -0.1637463422 0.02757314278 0.1637463422
2.685e+10 0.0276732738 0.1640349466 0.9723267262 -0.1640349466 0.9723267262 -0.1640349466 0.0276732738 0.1640349466
2.69e+10 0.02777357078 0.1643234601 0.9722264292 -0.1643234601 0.9722264292 -0.1643234601 0.02777357078 0.1643234601
2.695e+10 0.02787403362 0.1646118825 0.9721259664 -0.1646118825 0.9721259664 -0.1646118825 0.02787403362 0.1646118825
2.7e+10 0.02797466219 0.1649002137 0.9720253378 -0.1649002137 0.9720253378 -0.1649002137 0.02797466219 0.1649002137
2.705e+10 0.0280754564 0.1651884534 0.9719245436 -0.1651884534 0.9719245436 -0.1651884534 0.0280754564 0.1651884534
2.71e+10 0.02817641613 0.1654766017 0.9718235839 -0.1654766017 0.9718235839 -0.1654766017 0.02817641613 0.1654766017
2.715e+10 0.02827754127 0.1657646583 0.9717224587 -0.1657646583 0.9717224587 -0.1657646583 0.02827754127 0.1657646583
2.72e+10 0.02837883172 0.1660526231 0.9716211683 -0.1660526231 0.9716211683 -0.1660526231 0.02837883172 0.1660526231
2.725e+10 0.02848028737 0.166340496 0.9715197126 -0.166340496 0.9715197126 -0.166340496 0.02848028737 0.166340496
2.73e+10 0.02858190809 0.1666282768 0.9714180919 -0.1666282768 0.9714180919 -0.1666282768 0.02858190809 0.1666282768
2.735e+10 0.0286836938 0.1669159654 0.9713163062 -0.1669159654 0.9713163062 -0.1669159654 0.0286836938 0.1669159654
2.74e+10 0.02878564436 0.1672035617 0.9712143556 -0.1672035617 0.9712143556 -0.1672035617 0.02878564436 0.1672035617
2.745e+10 0.02888775968 0.1674910655 0.9711122403 -0.1674910655 0.9711122403 -0.1674910655 0.02888775968 0.1674910655
2.75e+10 0.02899003964 0.1677784767 0.9710099604 -0.1677784767 0.9710099604 -0.1677784767 0.02899003964 0.1677784767
2.755e+10 0.02909248413 0.1680657951 0.9709075159 -0.1680657951 0.9709075159 -0.1680657951 0.02909248413 0.1680657951
2.76e+10 0.02919509304 0.1683530207 0.970804907 -0.1683530207 0.970804907 -0.1683530207 0.02919509304 0.1683530207
2.765e+10 0.02929786626 0.1686401533 0.9707021337 -0.1686401533 0.9707021337 -0.1686401533 0.02929786626 0.1686401533
2.77e+10 0.02940080368 0.1689271927 0.9705991963 -0.1689271927 0.9705991963 -0.1689271927 0.02940080368 0.1689271927
2.775e+10 0.02950390519 0.1692141388 0.9704960948 -0.1692141388 0.9704960948 -0.1692141388 0.02950390519 0.1692141388
2.78e+10 0.02960717067 0.1695009915 0.9703928293 -0.1695009915 0.9703928293 -0.1695009915 0.02960717067 0.1695009915
2.785e+10 0.02971060002 0.1697877506 0.9702894 -0.1697877506 0.9702894 -0.1697877506 0.02971060002 0.1697877506
2.79e+10 0.02981419311 0.1700744161 0.9701858069 -0.1700744161 0.9701858069 -0.1700744161 0.02981419311 0.1700744161
2.795e+10 0.02991794985 0.1703609877 0.9700820501 -0.1703609877 0.9700820501 -0.1703609877 0.02991794985 0.1703609877
2.8e+10 0.03002187012 0.1706474654 0.9699781299 -0.1706474654 0.9699781299 -0.1706474654 0.03002187012 0.1706474654
2.805e+10 0.0301259538 0.1709338489 0.9698740462 -0.1709338489 0.9698740462 -0.1709338489 0.0301259538 0.1709338489
2.81e+10 0.03023020078 0.1712201382 0.9697697992 -0.1712201382 0.9697697992 -0.1712201382 0.03023020078 0.1712201382
2.815e+10 0.03033461095 0.1715063332 0.969665389 -0.1715063332 0.969665389 -0.1715063332 0.03033461095 0.1715063332
2.82e+10 0.0304391842 0.1717924337 0.9695608158 -0.1717924337 0.9695608158 -0.1717924337 0.0304391842 0.1717924337
2.825e+10 0.03054392042 0.1720784395 0.9694560796 -0.1720784395 0.9694560796 -0.1720784395 0.03054392042 0.1720784395
2.83e+10 0.03064881949 0.1723643506 0.9693511805 -0.1723643506 0.9693511805 -0.1723643506 0.03064881949 0.1723643506
2.835e+10 0.0307538813 0.1726501668 0.9692461187 -0.1726501668 0.9692461187 -0.1726501668 0.0307538813 0.1726501668
2.84e+10 0.03085910573 0.1729358879 0.9691408943 -0.1729358879 0.9691408943 -0.1729358879 0.03085910573 0.1729358879
2.845e+10 0.03096449268 0.1732215139 0.9690355073 -0.1732215139 0.9690355073 -0.1732215139 0.03096449268 0.1732215139
2.85e+10 0.03107004202 0.1735070446 0.968929958 -0.1735070446 0.968929958 -0.1735070446 0.03107004202 0.1735070446
2.855e+10 0.03117575365 0.1737924798 0.9688242463 -0.1737924798 0.9688242463 -0.1737924798 0.03117575365 0.1737924798
2.86e+10 0.03128162746 0.1740778195 0.9687183725 -0.1740778195 0.9687183725 -0.1740778195 0.03128162746 0.1740778195
2.865e+10 0.03138766332 0.1743630635 0.9686123367 -0.1743630635 0.9686123367 -0.1743630635 0.03138766332 0.1743630635
2.87e+10 0.03149386112 0.1746482116 0.9685061389 -0.1746482116 0.9685061389 -0.1746482116 0.03149386112 0.1746482116
2.875e+10 0.03160022075 0.1749332639 0.9683997792 -0.1749332639 0.9683997792 -0.1749332639 0.03160022075 0.1749332639
2.88e+10 0.0317067421 0.17521822 0.9682932579 -0.17521822 0.9682932579 -0.17521822 0.0317067421 0.17521822
2.885e+10 0.03181342505 0.1755030799 0.9681865749 -0.1755030799 0.9681865749 -0.1755030799 0.03181342505 0.1755030799
2.89e+10 0.03192026949 0.1757878434 0.9680797305 -0.1757878434 0.9680797305 -0.1757878434 0.03192026949 0.1757878434
2.895e+10 0.0320272753 0.1760725104 0.9679727247 -0.1760725104 0.9679727247 -0.1760725104 0.0320272753 0.1760725104
2.9e+10 0.03213444236 0.1763570809 0.9678655576 -0.1763570809 0.9678655576 -0.1763570809 0.03213444236 0.1763570809
2.905e+10 0.03224177057 0.1766415546 0.9677582294 -0.1766415546 0.9677582294 -0.1766415546 0.03224177057 0.1766415546
2.91e+10 0.0323492598 0.1769259314 0.9676507402 -0.1769259314 0.9676507402 -0.1769259314 0.0323492598 0.1769259314
2.915e+10 0.03245690995 0.1772102112 0.9675430901 -0.1772102112 0.9675430901 -0.1772102112 0.03245690995 0.1772102112
2.92e+10 0.03256472089 0.1774943938 0.9674352791 -0.1774943938 0.9674352791 -0.1774943938 0.03256472089 0.1774943938
2.925e+10 0.03267269251 0.1777784792 0.9673273075 -0.1777784792 0.9673273075 -0.1777784792 0.03267269251 0.1777784792
2.93e+10 0.0327808247 0.1780624672 0.9672191753 -0.1780624672 0.9672191753 -0.1780624672 0.0327808247 0.1780624672
2.935e+10 0.03288911733 0.1783463577 0.9671108827 -0.1783463577 0.9671108827 -0.1783463577 0.03288911733 0.1783463577
2.94e+10 0.0329975703 0.1786301505 0.9670024297 -0.1786301505 0.9670024297 -0.1786301505 0.0329975703 0.1786301505
2.945e+10 0.03310618349 0.1789138455 0.9668938165 -0.1789138455 0.9668938165 -0.1789138455 0.03310618349 0.1789138455
2.95e+10 0.03321495678 0.1791974426 0.9667850432 -0.1791974426 0.9667850432 -0.1791974426 0.03321495678 0.1791974426
2.955e+10 0.03332389005 0.1794809416 0.9666761099 -0.1794809416 0.9666761099 -0.1794809416 0.03332389005 0.1794809416
2.96e+10 0.03343298319 0.1797643425 0.9665670168 -0.1797643425 0.9665670168 -0.1797643425 0.03343298319 0.1797643425
2.965e+10 0.03354223609 0.180047645 0.9664577639 -0.180047645 0.9664577639 -0.180047645 0.03354223609 0.180047645
2.97e+10 0.03365164861 0.1803308492 0.9663483514 -0.1803308492 0.9663483514 -0.1803308492 0.03365164861 0.1803308492
2.975e+10 0.03376122066 0.1806139547 0.9662387793 -0.1806139547 0.9662387793 -0.1806139547 0.03376122066 0.1806139547
2.98e+10 0.03387095211 0.1808969616 0.9661290479 -0.1808969616 0.9661290479 -0.1808969616 0.03387095211 0.1808969616
2.985e+10 0.03398084284 0.1811798696 0.9660191572 -0.1811798696 0.9660191572 -0.1811798696 0.03398084284 0.1811798696
2.99e+10 0.03409089274 0.1814626787 0.9659091073 -0.1814626787 0.9659091073 -0.1814626787 0.03409089274 0.1814626787
2.995e+10 0.03420110169 0.1817453888 0.9657988983 -0.1817453888 0.9657988983 -0.1817453888 0.03420110169 0.1817453888
3e+10 0.03431146957 0.1820279996 0.9656885304 -0.1820279996 0.9656885304 -0.1820279996 0.03431146957 0.1820279996
